Instance0
Gap
100.00%
100.00%
75.42%
73.26%
63.89%
57.35%
46.15%
46.04%
CPXPARAM_MIP_Cuts_Gomory 6
Instance1
Gap
100.00%
100.00%
100.00%
99.28%
95.92%
89.62%
86.87%
82.45%
82.11%
74.18%
74.02%
CPXPARAM_MIP_Cuts_Gomory 15
Instance2
Gap
100.00%
100.00%
68.57%
63.95%
60.03%
55.34%
42.15%
41.07%
CPXPARAM_MIP_Cuts_Gomory 2
Instance3
Gap
100.00%
100.00%
99.62%
99.49%
95.57%
88.41%
88.00%
85.74%
CPXPARAM_MIP_Cuts_Gomory 6
Instance4
Gap
100.00%
100.00%
100.00%
76.86%
72.59%
68.63%
52.83%
52.32%
CPXPARAM_MIP_Cuts_Gomory 3
Instance5
Gap
100.00%
100.00%
100.00%
99.40%
99.04%
90.14%
86.55%
75.55%
69.28%
68.64%
CPXPARAM_MIP_Cuts_Gomory 8
Instance6
Gap
100.00%
100.00%
69.98%
65.46%
52.33%
48.50%
CPXPARAM_MIP_Cuts_Gomory 0
Instance7
Gap
100.00%
100.00%
100.00%
99.99%
94.79%
92.81%
92.73%
89.13%
87.60%
CPXPARAM_MIP_Cuts_Gomory 7
Instance8
Gap
100.00%
100.00%
59.21%
53.34%
46.02%
38.29%
30.95%
30.54%
CPXPARAM_MIP_Cuts_Gomory 4
Instance9
Gap
100.00%
100.00%
100.00%
99.37%
99.21%
92.89%
88.67%
88.65%
85.61%
85.49%
CPXPARAM_MIP_Cuts_Gomory 7
Instance10
Gap
100.00%
100.00%
62.81%
59.89%
50.16%
43.46%
36.70%
28.96%
21.74%
CPXPARAM_MIP_Cuts_Gomory 3
Instance11
Gap
100.00%
100.00%
99.97%
99.93%
96.05%
94.53%
90.54%
82.94%
80.95%
78.29%
CPXPARAM_MIP_Cuts_Gomory 11
Instance12
Gap
100.00%
100.00%
69.71%
64.56%
53.47%
52.82%
51.97%
51.22%
49.62%
48.55%
46.40%
45.90%
30.01%
29.87%
29.81%
CPXPARAM_MIP_Cuts_Gomory 11
Instance13
Gap
100.00%
100.00%
100.00%
99.35%
99.30%
95.41%
91.99%
91.84%
89.42%
89.38%
CPXPARAM_MIP_Cuts_Gomory 7
Instance14
Gap
100.00%
100.00%
67.25%
61.80%
56.11%
37.92%
28.76%
28.31%
25.92%
CPXPARAM_MIP_Cuts_Gomory 5
Instance15
Gap
100.00%
100.00%
99.71%
99.31%
92.62%
91.73%
90.54%
89.14%
83.08%
77.43%
75.80%
CPXPARAM_MIP_Cuts_Gomory 11
Instance16
Gap
100.00%
100.00%
60.68%
59.49%
51.21%
33.97%
27.78%
26.95%
CPXPARAM_MIP_Cuts_Gomory 3
Instance17
Gap
100.00%
100.00%
100.00%
99.43%
99.32%
94.30%
91.08%
90.11%
88.43%
86.33%
86.03%
84.27%
83.94%
83.90%
83.72%
83.67%
83.66%
82.81%
82.78%
CPXPARAM_MIP_Cuts_Gomory 16
Instance18
Gap
100.00%
100.00%
57.84%
51.78%
44.78%
43.92%
25.90%
23.44%
CPXPARAM_MIP_Cuts_Gomory 3
Instance19
Gap
100.00%
100.00%
99.54%
99.29%
94.90%
91.24%
87.75%
83.98%
83.87%
83.37%
83.27%
CPXPARAM_MIP_Cuts_Gomory 11
Instance20
Gap
100.00%
100.00%
89.26%
78.36%
62.09%
60.86%
57.32%
55.65%
55.58%
CPXPARAM_MIP_Cuts_Gomory 5
Instance21
Gap
100.00%
100.00%
100.00%
99.52%
98.54%
93.15%
88.59%
85.67%
81.10%
79.89%
75.13%
CPXPARAM_MIP_Cuts_Gomory 10
Instance22
Gap
100.00%
100.00%
88.62%
70.72%
55.45%
55.41%
54.75%
54.07%
CPXPARAM_MIP_Cuts_Gomory 2
Instance23
Gap
100.00%
100.00%
99.78%
99.46%
92.88%
82.72%
46.51%
31.90%
CPXPARAM_MIP_Cuts_Gomory 9
Instance24
Gap
100.00%
100.00%
84.00%
78.89%
67.07%
63.81%
59.66%
45.97%
45.68%
CPXPARAM_MIP_Cuts_Gomory 4
Instance25
Gap
100.00%
100.00%
99.59%
99.18%
95.56%
87.86%
87.38%
83.25%
78.93%
CPXPARAM_MIP_Cuts_Gomory 9
Instance26
Gap
100.00%
100.00%
84.48%
68.92%
56.67%
45.82%
43.73%
CPXPARAM_MIP_Cuts_Gomory 5
Instance27
Gap
100.00%
100.00%
99.81%
99.61%
97.97%
85.82%
81.49%
79.98%
46.93%
CPXPARAM_MIP_Cuts_Gomory 5
Instance28
Gap
100.00%
100.00%
100.00%
69.66%
59.68%
49.19%
40.94%
40.19%
CPXPARAM_MIP_Cuts_Gomory 4
Instance29
Gap
100.00%
100.00%
100.00%
100.00%
97.08%
94.41%
88.59%
82.79%
78.87%
72.31%
71.98%
71.52%
71.25%
64.16%
63.01%
62.67%
62.67%
62.58%
CPXPARAM_MIP_Cuts_Gomory 16
Instance30
Gap
100.00%
100.00%
69.10%
61.90%
53.33%
40.29%
39.53%
CPXPARAM_MIP_Cuts_Gomory 5
Instance31
Gap
100.00%
100.00%
99.75%
99.32%
92.61%
89.38%
84.61%
55.60%
55.60%
21.41%
21.41%
21.41%
19.09%
15.93%
15.93%
CPXPARAM_MIP_Cuts_Gomory 4
Instance32
Gap
100.00%
100.00%
100.00%
69.77%
63.45%
57.73%
49.92%
41.16%
38.46%
37.79%
CPXPARAM_MIP_Cuts_Gomory 6
Instance33
Gap
100.00%
100.00%
100.00%
98.79%
92.64%
79.94%
78.34%
70.67%
68.95%
67.43%
66.65%
66.62%
CPXPARAM_MIP_Cuts_Gomory 9
Instance34
Gap
100.00%
100.00%
66.38%
51.74%
39.25%
34.90%
30.93%
26.79%
CPXPARAM_MIP_Cuts_Gomory 4
Instance35
Gap
100.00%
100.00%
99.38%
98.77%
88.10%
77.55%
75.43%
65.53%
61.23%
CPXPARAM_MIP_Cuts_Gomory 8
Instance36
Gap
100.00%
100.00%
100.00%
85.27%
82.45%
71.87%
66.91%
56.22%
54.95%
54.12%
CPXPARAM_MIP_Cuts_Gomory 6
Instance37
Gap
100.00%
100.00%
100.00%
100.00%
100.00%
97.51%
93.44%
92.59%
86.89%
86.61%
CPXPARAM_MIP_Cuts_Gomory 10
Instance38
Gap
100.00%
100.00%
78.46%
58.43%
34.42%
30.20%
23.58%
CPXPARAM_MIP_Cuts_Gomory 5
Instance39
Gap
100.00%
100.00%
99.77%
99.55%
95.76%
90.91%
88.81%
74.53%
58.70%
56.91%
49.85%
32.70%
CPXPARAM_MIP_Cuts_Gomory 9
